computational_data/real_data/logs/wdbc_trial_015_lex.log
Welcome to the CBC MILP Solver 
Version: 2.10.12 
Build Date: Aug 20 2024 

command line - /opt/homebrew/bin/cbc computational_data/real_data/lp/wdbc_trial_015_lex.lp seconds 10.0 solve solu computational_data/real_data/solutions/wdbc_trial_015_lex.sol (default strategy 1)
 CoinLpIO::readLp(): Maximization problem reformulated as minimization
Coin0009I Switching back to maximization to get correct duals etc
seconds was changed from 1e+100 to 10
Continuous objective value is 7.4115 - 0.00 seconds
Cgl0003I 0 fixed, 0 tightened bounds, 54 strengthened rows, 0 substitutions
Cgl0003I 0 fixed, 0 tightened bounds, 58 strengthened rows, 0 substitutions
Cgl0003I 0 fixed, 0 tightened bounds, 54 strengthened rows, 0 substitutions
Cgl0003I 0 fixed, 0 tightened bounds, 42 strengthened rows, 0 substitutions
Cgl0003I 0 fixed, 0 tightened bounds, 21 strengthened rows, 0 substitutions
Cgl0003I 0 fixed, 0 tightened bounds, 13 strengthened rows, 0 substitutions
Cgl0003I 0 fixed, 0 tightened bounds, 6 strengthened rows, 0 substitutions
Cgl0003I 0 fixed, 0 tightened bounds, 6 strengthened rows, 0 substitutions
Cgl0003I 0 fixed, 0 tightened bounds, 4 strengthened rows, 0 substitutions
Cgl0004I processed model has 62 rows, 26 columns (26 integer (25 of which binary)) and 397 elements
Cbc0038I Initial state - 11 integers unsatisfied sum - 4
Cbc0038I Pass   1: suminf.    0.00000 (0) obj. 7.37168 iterations 10
Cbc0038I Solution found of 7.37168
Cbc0038I Cleaned solution of 7.37168
Cbc0038I Before mini branch and bound, 15 integers at bound fixed and 0 continuous
Cbc0038I Full problem 62 rows 26 columns, reduced to 16 rows 9 columns
Cbc0038I Mini branch and bound did not improve solution (0.01 seconds)
Cbc0038I Round again with cutoff of 7.37434
Cbc0038I Pass   2: suminf.    0.50170 (9) obj. 7.37434 iterations 4
Cbc0038I Pass   3: suminf.    0.50170 (9) obj. 7.37434 iterations 3
Cbc0038I Pass   4: suminf.    2.94316 (9) obj. 7.37434 iterations 7
Cbc0038I Pass   5: suminf.    2.92042 (13) obj. 7.37434 iterations 6
Cbc0038I Pass   6: suminf.    4.04226 (12) obj. 7.37434 iterations 13
Cbc0038I Pass   7: suminf.    3.25000 (11) obj. 7.3761 iterations 12
Cbc0038I Pass   8: suminf.    2.94316 (9) obj. 7.37434 iterations 9
Cbc0038I Pass   9: suminf.    2.92042 (13) obj. 7.37434 iterations 3
Cbc0038I Pass  10: suminf.    3.42042 (10) obj. 7.37434 iterations 16
Cbc0038I Pass  11: suminf.    3.42042 (11) obj. 7.37434 iterations 10
Cbc0038I Pass  12: suminf.    3.07143 (17) obj. 7.38306 iterations 16
Cbc0038I Pass  13: suminf.    3.00000 (9) obj. 7.38938 iterations 9
Cbc0038I Pass  14: suminf.    0.60203 (7) obj. 7.37434 iterations 4
Cbc0038I Pass  15: suminf.    0.50170 (9) obj. 7.37434 iterations 4
Cbc0038I Pass  16: suminf.    2.94316 (9) obj. 7.37434 iterations 5
Cbc0038I Pass  17: suminf.    2.92042 (13) obj. 7.37434 iterations 6
Cbc0038I Pass  18: suminf.    4.04226 (12) obj. 7.37434 iterations 12
Cbc0038I Pass  19: suminf.    3.25000 (11) obj. 7.3761 iterations 9
Cbc0038I Pass  20: suminf.    2.94316 (9) obj. 7.37434 iterations 8
Cbc0038I Pass  21: suminf.    2.92042 (13) obj. 7.37434 iterations 3
Cbc0038I Pass  22: suminf.    3.42042 (10) obj. 7.37434 iterations 16
Cbc0038I Pass  23: suminf.    3.42042 (11) obj. 7.37434 iterations 8
Cbc0038I Pass  24: suminf.    3.07143 (17) obj. 7.38306 iterations 16
Cbc0038I Pass  25: suminf.    2.92857 (16) obj. 7.38306 iterations 1
Cbc0038I Pass  26: suminf.    0.60203 (7) obj. 7.37434 iterations 23
Cbc0038I Pass  27: suminf.    0.50170 (9) obj. 7.37434 iterations 8
Cbc0038I Pass  28: suminf.    2.94316 (9) obj. 7.37434 iterations 17
Cbc0038I Pass  29: suminf.    2.92042 (13) obj. 7.37434 iterations 5
Cbc0038I Pass  30: suminf.    3.42042 (10) obj. 7.37434 iterations 16
Cbc0038I Pass  31: suminf.    3.42042 (11) obj. 7.37434 iterations 11
Cbc0038I No solution found this major pass
Cbc0038I Before mini branch and bound, 5 integers at bound fixed and 0 continuous
Cbc0038I Full problem 62 rows 26 columns, reduced to 50 rows 21 columns
Cbc0038I Mini branch and bound did not improve solution (0.02 seconds)
Cbc0038I After 0.02 seconds - Feasibility pump exiting with objective of 7.37168 - took 0.01 seconds
Cbc0012I Integer solution of 7.37168 found by feasibility pump after 0 iterations and 0 nodes (0.02 seconds)
Cbc0038I Full problem 62 rows 26 columns, reduced to 16 rows 9 columns
Cbc0031I 2 added rows had average density of 12
Cbc0013I At root node, 8 cuts changed objective from 7.3982285 to 7.37168 in 1 passes
Cbc0014I Cut generator 0 (Probing) - 0 row cuts average 0.0 elements, 0 column cuts (0 active)  in 0.000 seconds - new frequency is -100
Cbc0014I Cut generator 1 (Gomory) - 3 row cuts average 6.0 elements, 0 column cuts (0 active)  in 0.000 seconds - new frequency is 1
Cbc0014I Cut generator 2 (Knapsack) - 0 row cuts average 0.0 elements, 0 column cuts (0 active)  in 0.000 seconds - new frequency is -100
Cbc0014I Cut generator 3 (Clique) - 0 row cuts average 0.0 elements, 0 column cuts (0 active)  in 0.000 seconds - new frequency is -100
Cbc0014I Cut generator 4 (MixedIntegerRounding2) - 0 row cuts average 0.0 elements, 0 column cuts (0 active)  in 0.000 seconds - new frequency is -100
Cbc0014I Cut generator 5 (FlowCover) - 0 row cuts average 0.0 elements, 0 column cuts (0 active)  in 0.000 seconds - new frequency is -100
Cbc0014I Cut generator 6 (TwoMirCuts) - 4 row cuts average 13.5 elements, 0 column cuts (0 active)  in 0.000 seconds - new frequency is -100
Cbc0014I Cut generator 7 (ZeroHalf) - 1 row cuts average 13.0 elements, 0 column cuts (0 active)  in 0.000 seconds - new frequency is -100
Cbc0001I Search completed - best objective 7.371680000000001, took 0 iterations and 0 nodes (0.02 seconds)
Cbc0035I Maximum depth 0, 0 variables fixed on reduced cost
Cuts at root node changed objective from 7.39823 to 7.37168
Probing was tried 1 times and created 0 cuts of which 0 were active after adding rounds of cuts (0.000 seconds)
Gomory was tried 1 times and created 3 cuts of which 0 were active after adding rounds of cuts (0.000 seconds)
Knapsack was tried 1 times and created 0 cuts of which 0 were active after adding rounds of cuts (0.000 seconds)
Clique was tried 1 times and created 0 cuts of which 0 were active after adding rounds of cuts (0.000 seconds)
MixedIntegerRounding2 was tried 1 times and created 0 cuts of which 0 were active after adding rounds of cuts (0.000 seconds)
FlowCover was tried 1 times and created 0 cuts of which 0 were active after adding rounds of cuts (0.000 seconds)
TwoMirCuts was tried 1 times and created 4 cuts of which 0 were active after adding rounds of cuts (0.000 seconds)
ZeroHalf was tried 1 times and created 1 cuts of which 0 were active after adding rounds of cuts (0.000 seconds)

Result - Optimal solution found

Objective value:                7.37168000
Enumerated nodes:               0
Total iterations:               0
Time (CPU seconds):             0.02
Time (Wallclock seconds):       0.02

Total time (CPU seconds):       0.02   (Wallclock seconds):       0.02

